100 8
411 687
105 271
495 772
807 250
299 421
648 686
70 231
651 494
112 199
558 268
115 567
646 542
152 537
111 464
410 372
246 377
659 641
702 189
492 253
424 889
158 191
69 753
679 457
518 518
356 788
266 435
321 877
390 555
385 758
573 470
119 570
103 406
52 253
810 266
326 858
853 374
709 539
230 481
82 542
586 693
245 445
223 359
235 308
442 216
701 801
449 675
214 812
344 782
89 481
184 868
659 778
350 717
789 103
286 292
608 721
513 384
203 711
313 594
812 771
701 251
720 770
65 285
636 463
403 760
548 518
640 764
442 549
365 364
394 364
182 298
663 730
305 246
173 527
146 326
720 514
366 695
259 430
338 557
251 449
483 542
721 639
519 436
648 805
815 256
773 871
210 519
853 149
481 359
198 733
679 519
219 747
131 251
371 878
131 282
290 404
353 733
90 305
18 364
559 493
455 367
